LPs/20_8/20_8a12smaller120.result
SDPA-GMP start at Thu Apr 19 18:00:26 2018
data      is 20_8a12smaller120.dat-s
parameter is ./param.sdpa
out       is 20_8a12smaller120.result
DENSE computation
   mu      thetaP  thetaD  objP      objD      alphaP  alphaD  beta 
 0 1.0e+10 1.0e+00 1.0e+00 +0.00e+00 -3.11e+09 7.2e-01 9.0e-01 2.00e-01
 1 3.0e+09 2.8e-01 1.0e-01 +1.51e+04 -3.22e+08 8.6e-01 8.5e-01 2.00e-01
 2 5.6e+08 3.9e-02 1.6e-02 +3.37e+03 -4.95e+07 9.0e-01 5.9e-01 2.00e-01
 3 1.5e+08 3.9e-03 6.6e-03 +6.54e+03 -2.05e+07 9.0e-01 8.7e-01 2.00e-01
 4 2.4e+07 3.9e-04 8.5e-04 +1.05e+04 -2.63e+06 9.0e-01 8.7e-01 2.00e-01
 5 4.0e+06 3.9e-05 1.1e-04 +1.38e+04 -3.38e+05 9.0e-01 9.0e-01 2.00e-01
 6 5.7e+05 3.9e-06 1.1e-05 +1.80e+04 -3.56e+04 9.0e-01 9.0e-01 2.00e-01
 7 7.8e+04 3.9e-07 1.1e-06 +2.33e+04 -3.62e+03 9.0e-01 9.5e-01 2.00e-01
 8 1.1e+04 3.9e-08 5.1e-08 +2.77e+04 -4.13e+02 9.0e-01 1.0e+00 2.00e-01
 9 2.6e+03 3.9e-09 1.2e-160 +1.29e+04 -2.56e+02 9.0e-01 9.0e-01 2.00e-01
10 6.1e+02 3.9e-10 3.5e-159 +2.94e+03 -2.56e+02 9.0e-01 9.0e-01 2.00e-01
11 1.4e+02 3.9e-11 1.6e-158 +5.02e+02 -2.56e+02 9.0e-01 9.0e-01 2.00e-01
12 3.3e+01 3.9e-12 8.3e-158 -7.87e+01 -2.56e+02 9.0e-01 9.0e-01 2.00e-01
13 7.6e+00 3.9e-13 2.1e-156 -2.15e+02 -2.56e+02 9.0e-01 9.0e+01 2.00e-01
14 1.1e+01 3.9e-14 7.0e-154 -2.46e+02 -2.56e+02 9.0e-01 9.0e-01 2.00e-01
15 2.5e+00 3.9e-15 4.1e-155 -2.47e+02 -2.56e+02 9.0e-01 9.0e+01 2.00e-01
16 3.5e+00 3.9e-16 5.1e-151 -2.53e+02 -2.56e+02 9.0e-01 9.0e-01 2.00e-01
17 8.2e-01 3.9e-17 7.6e-152 -2.53e+02 -2.56e+02 9.0e-01 9.0e+01 2.00e-01
18 1.2e+00 3.9e-18 1.1e-149 -2.55e+02 -2.56e+02 9.0e-01 9.0e-01 2.00e-01
19 2.7e-01 3.9e-19 3.2e-150 -2.55e+02 -2.56e+02 9.0e-01 9.0e+01 2.00e-01
20 3.8e-01 3.9e-20 2.9e-148 -2.56e+02 -2.56e+02 9.0e-01 9.0e-01 2.00e-01
21 8.9e-02 3.9e-21 2.3e-148 -2.56e+02 -2.56e+02 9.0e-01 9.0e-01 2.00e-01
22 2.1e-02 3.9e-22 2.3e-149 -2.56e+02 -2.56e+02 9.0e-01 1.0e+01 2.00e-01
23 6.1e-03 3.9e-23 2.0e-148 -2.56e+02 -2.56e+02 9.0e-01 9.0e-01 2.00e-01
24 1.4e-03 3.9e-24 3.2e-149 -2.56e+02 -2.56e+02 9.0e-01 1.0e+00 2.00e-01
25 3.1e-04 3.9e-25 4.3e-148 -2.56e+02 -2.56e+02 9.0e-01 1.5e+00 2.00e-01
26 6.3e-05 3.9e-26 2.1e-148 -2.56e+02 -2.56e+02 9.0e-01 3.6e+00 2.00e-01
27 1.5e-05 3.9e-27 5.4e-148 -2.56e+02 -2.56e+02 9.0e-01 9.0e-01 2.00e-01
28 3.5e-06 3.9e-28 5.4e-149 -2.56e+02 -2.56e+02 9.0e-01 1.2e+00 2.00e-01
29 7.2e-07 3.9e-29 1.2e-149 -2.56e+02 -2.56e+02 9.0e-01 1.8e+00 2.00e-01
30 1.5e-07 3.9e-30 8.9e-150 -2.56e+02 -2.56e+02 9.0e-01 9.0e-01 2.00e-01
31 3.6e-08 3.9e-31 6.7e-151 -2.56e+02 -2.56e+02 9.0e-01 1.2e+00 2.00e-01
32 7.3e-09 3.9e-32 3.2e-151 -2.56e+02 -2.56e+02 9.0e-01 1.7e+00 2.00e-01
33 1.6e-09 3.9e-33 9.1e-152 -2.56e+02 -2.56e+02 9.0e-01 9.0e-01 2.00e-01
34 3.6e-10 3.9e-34 7.8e-153 -2.56e+02 -2.56e+02 9.0e-01 1.2e+00 2.00e-01
35 7.5e-11 3.9e-35 1.7e-152 -2.56e+02 -2.56e+02 9.0e-01 1.7e+00 2.00e-01
36 1.6e-11 3.9e-36 0.0e+00 -2.56e+02 -2.56e+02 9.0e-01 9.0e-01 2.00e-01
37 3.7e-12 3.9e-37 5.5e-143 -2.56e+02 -2.56e+02 9.0e-01 1.2e+00 2.00e-01
38 7.6e-13 3.9e-38 0.0e+00 -2.56e+02 -2.56e+02 9.0e-01 1.7e+00 2.00e-01
39 1.6e-13 3.9e-39 0.0e+00 -2.56e+02 -2.56e+02 9.0e-01 9.0e-01 2.00e-01
40 3.7e-14 3.9e-40 5.5e-143 -2.56e+02 -2.56e+02 9.0e-01 1.2e+00 2.00e-01
41 7.7e-15 3.9e-41 6.6e-163 -2.56e+02 -2.56e+02 9.0e-01 1.7e+00 2.00e-01
42 1.6e-15 3.9e-42 1.1e-142 -2.56e+02 -2.56e+02 9.0e-01 9.0e-01 2.00e-01
43 3.8e-16 3.9e-43 5.5e-143 -2.56e+02 -2.56e+02 9.0e-01 1.2e+00 2.00e-01
44 7.8e-17 3.9e-44 7.7e-142 -2.56e+02 -2.56e+02 9.0e-01 1.7e+00 2.00e-01
45 1.7e-17 3.9e-45 1.2e-140 -2.56e+02 -2.56e+02 9.0e-01 9.0e-01 2.00e-01
46 3.9e-18 3.9e-46 1.0e-141 -2.56e+02 -2.56e+02 9.0e-01 1.2e+00 2.00e-01
47 8.0e-19 3.9e-47 3.2e-141 -2.56e+02 -2.56e+02 9.0e-01 1.7e+00 2.00e-01
48 1.7e-19 3.9e-48 4.1e-141 -2.56e+02 -2.56e+02 9.0e-01 9.0e-01 2.00e-01
49 3.9e-20 3.9e-49 1.3e-139 -2.56e+02 -2.56e+02 9.0e-01 1.2e+00 2.00e-01
50 8.1e-21 3.9e-50 2.2e-140 -2.56e+02 -2.56e+02 9.0e-01 1.7e+00 2.00e-01
51 1.7e-21 3.9e-51 1.6e-140 -2.56e+02 -2.56e+02 9.0e-01 9.0e-01 2.00e-01
52 4.0e-22 3.9e-52 1.6e-141 -2.56e+02 -2.56e+02 9.0e-01 1.2e+00 2.00e-01
53 8.2e-23 3.9e-53 2.7e-142 -2.56e+02 -2.56e+02 9.0e-01 1.7e+00 2.00e-01
54 1.7e-23 3.9e-54 1.6e-142 -2.56e+02 -2.56e+02 9.0e-01 9.0e-01 2.00e-01
55 4.1e-24 3.9e-55 5.5e-143 -2.56e+02 -2.56e+02 9.0e-01 1.2e+00 2.00e-01
56 8.3e-25 3.9e-56 0.0e+00 -2.56e+02 -2.56e+02 9.0e-01 1.7e+00 2.00e-01
57 1.8e-25 3.9e-57 1.1e-142 -2.56e+02 -2.56e+02 9.0e-01 9.0e-01 2.00e-01
58 4.1e-26 3.9e-58 6.8e-141 -2.56e+02 -2.56e+02 9.0e-01 1.2e+00 2.00e-01
59 8.5e-27 3.9e-59 7.0e-141 -2.56e+02 -2.56e+02 9.0e-01 1.7e+00 2.00e-01
60 1.8e-27 3.9e-60 4.1e-140 -2.56e+02 -2.56e+02 9.0e-01 9.0e-01 2.00e-01
61 4.2e-28 3.9e-61 3.6e-139 -2.56e+02 -2.56e+02 9.0e-01 1.2e+00 2.00e-01
62 8.6e-29 3.9e-62 3.5e-138 -2.56e+02 -2.56e+02 9.0e-01 1.7e+00 2.00e-01
63 1.8e-29 3.9e-63 6.1e-136 -2.56e+02 -2.56e+02 9.0e-01 9.0e-01 2.00e-01
64 4.3e-30 3.9e-64 6.2e-135 -2.56e+02 -2.56e+02 9.0e-01 1.2e+00 2.00e-01
65 8.8e-31 3.9e-65 1.1e-135 -2.56e+02 -2.56e+02 9.0e-01 1.7e+00 2.00e-01
66 1.9e-31 3.9e-66 7.8e-136 -2.56e+02 -2.56e+02 9.0e-01 9.0e-01 2.00e-01
67 4.3e-32 3.9e-67 7.8e-137 -2.56e+02 -2.56e+02 9.0e-01 1.2e+00 2.00e-01
68 8.9e-33 3.9e-68 1.4e-137 -2.56e+02 -2.56e+02 9.0e-01 1.7e+00 2.00e-01
69 1.9e-33 3.9e-69 1.0e-137 -2.56e+02 -2.56e+02 9.0e-01 9.0e-01 2.00e-01
70 4.4e-34 3.9e-70 1.4e-138 -2.56e+02 -2.56e+02 9.0e-01 1.2e+00 2.00e-01
71 9.0e-35 3.9e-71 7.3e-137 -2.56e+02 -2.56e+02 9.0e-01 1.7e+00 2.00e-01
72 1.9e-35 3.9e-72 1.6e-135 -2.56e+02 -2.56e+02 9.0e-01 9.0e-01 2.00e-01
73 4.5e-36 3.9e-73 1.3e-134 -2.56e+02 -2.56e+02 9.0e-01 1.2e+00 2.00e-01
74 9.2e-37 3.9e-74 1.6e-133 -2.56e+02 -2.56e+02 9.0e-01 1.7e+00 2.00e-01
75 2.0e-37 3.9e-75 4.9e-132 -2.56e+02 -2.56e+02 9.0e-01 9.0e-01 2.00e-01
76 4.5e-38 3.9e-76 1.4e-131 -2.56e+02 -2.56e+02 9.0e-01 1.2e+00 2.00e-01
77 9.3e-39 3.9e-77 3.1e-130 -2.56e+02 -2.56e+02 9.0e-01 1.7e+00 2.00e-01
78 2.0e-39 3.9e-78 9.3e-130 -2.56e+02 -2.56e+02 9.0e-01 9.0e-01 2.00e-01
79 4.6e-40 3.9e-79 9.3e-131 -2.56e+02 -2.56e+02 9.0e-01 1.2e+00 2.00e-01
80 9.5e-41 3.9e-80 1.8e-131 -2.56e+02 -2.56e+02 9.0e-01 1.7e+00 2.00e-01
81 2.0e-41 3.9e-81 1.1e-131 -2.56e+02 -2.56e+02 9.0e-01 9.0e-01 2.00e-01
82 4.7e-42 3.9e-82 8.6e-130 -2.56e+02 -2.56e+02 9.0e-01 1.2e+00 2.00e-01
83 9.6e-43 3.9e-83 1.7e-129 -2.56e+02 -2.56e+02 9.0e-01 1.7e+00 2.00e-01
84 2.1e-43 3.9e-84 1.2e-129 -2.56e+02 -2.56e+02 9.0e-01 9.0e-01 2.00e-01
85 4.8e-44 3.9e-85 1.2e-130 -2.56e+02 -2.56e+02 9.0e-01 1.2e+00 2.00e-01
86 9.8e-45 3.9e-86 2.1e-131 -2.56e+02 -2.56e+02 9.6e-01 1.2e+00 1.00e-01
87 9.8e-46 3.9e-86 3.9e-132 -2.56e+02 -2.56e+02 9.6e-01 1.2e+00 1.00e-01
88 9.9e-47 3.9e-86 6.8e-133 -2.56e+02 -2.56e+02 9.6e-01 1.2e+00 1.00e-01
89 1.0e-47 3.9e-86 1.1e-133 -2.56e+02 -2.56e+02 9.6e-01 1.1e+00 1.00e-01
90 1.0e-48 3.9e-86 1.5e-134 -2.56e+02 -2.56e+02 9.6e-01 1.1e+00 1.00e-01
91 1.1e-49 3.9e-86 1.8e-135 -2.56e+02 -2.56e+02 9.7e-01 1.1e+00 1.00e-01
92 1.1e-50 3.9e-86 1.9e-136 -2.56e+02 -2.56e+02 9.7e-01 1.1e+00 1.00e-01
93 1.1e-51 3.9e-86 1.6e-137 -2.56e+02 -2.56e+02 9.7e-01 1.1e+00 1.00e-01
94 1.1e-52 3.9e-86 1.2e-138 -2.56e+02 -2.56e+02 9.7e-01 1.1e+00 1.00e-01
95 1.1e-53 3.9e-86 7.9e-140 -2.56e+02 -2.56e+02 9.7e-01 1.1e+00 1.00e-01
96 1.1e-54 3.9e-86 5.2e-141 -2.56e+02 -2.56e+02 9.7e-01 1.1e+00 1.00e-01
97 1.2e-55 3.9e-86 3.3e-142 -2.56e+02 -2.56e+02 9.7e-01 1.1e+00 1.00e-01
98 1.2e-56 3.9e-86 1.1e-142 -2.56e+02 -2.56e+02 9.7e-01 1.1e+00 1.00e-01
99 1.2e-57 3.9e-86 5.5e-143 -2.56e+02 -2.56e+02 9.7e-01 1.1e+00 1.00e-01
100 1.2e-58 3.9e-86 5.5e-143 -2.56e+02 -2.56e+02 9.7e-01 1.1e+00 1.00e-01
101 1.2e-59 3.9e-86 3.0e-162 -2.56e+02 -2.56e+02 9.7e-01 1.1e+00 1.00e-01
102 1.2e-60 3.9e-86 1.1e-142 -2.56e+02 -2.56e+02 9.7e-01 1.1e+00 1.00e-01
103 1.2e-61 3.9e-86 5.5e-143 -2.56e+02 -2.56e+02 9.7e-01 1.1e+00 1.00e-01
104 1.2e-62 3.9e-86 2.9e-143 -2.56e+02 -2.56e+02 9.7e-01 1.1e+00 1.00e-01
105 1.2e-63 3.9e-86 1.7e-144 -2.56e+02 -2.56e+02 9.7e-01 1.1e+00 1.00e-01
106 1.2e-64 3.9e-86 1.0e-145 -2.56e+02 -2.56e+02 9.7e-01 1.1e+00 1.00e-01
107 1.2e-65 3.9e-86 5.8e-147 -2.56e+02 -2.56e+02 9.7e-01 1.1e+00 1.00e-01
108 1.2e-66 3.9e-86 3.4e-148 -2.56e+02 -2.56e+02 9.7e-01 1.1e+00 1.00e-01
109 1.2e-67 3.9e-86 2.0e-149 -2.56e+02 -2.56e+02 9.7e-01 1.1e+00 1.00e-01
110 1.2e-68 3.9e-86 1.2e-150 -2.56e+02 -2.56e+02 9.7e-01 1.1e+00 1.00e-01
111 1.2e-69 3.9e-86 6.8e-152 -2.56e+02 -2.56e+02 9.7e-01 1.1e+00 1.00e-01
112 1.2e-70 3.9e-86 4.0e-153 -2.56e+02 -2.56e+02 9.7e-01 1.1e+00 1.00e-01
113 1.2e-71 3.9e-86 2.3e-154 -2.56e+02 -2.56e+02 9.7e-01 1.1e+00 1.00e-01
114 1.2e-72 3.9e-86 1.4e-155 -2.56e+02 -2.56e+02 9.7e-01 1.1e+00 1.00e-01
115 1.2e-73 3.9e-86 7.9e-157 -2.56e+02 -2.56e+02 9.7e-01 1.1e+00 1.00e-01
116 1.2e-74 3.9e-86 4.6e-158 -2.56e+02 -2.56e+02 9.7e-01 1.1e+00 1.00e-01
117 1.2e-75 3.9e-86 2.7e-159 -2.56e+02 -2.56e+02 9.7e-01 1.1e+00 1.00e-01
118 1.2e-76 3.9e-86 1.6e-160 -2.56e+02 -2.56e+02 9.7e-01 1.1e+00 1.00e-01
119 1.2e-77 3.9e-86 8.9e-162 -2.56e+02 -2.56e+02 9.7e-01 1.1e+00 1.00e-01
120 1.2e-78 3.9e-86 5.9e-162 -2.56e+02 -2.56e+02 9.7e-01 1.1e+00 1.00e-01
121 1.2e-79 3.9e-86 1.5e-163 -2.56e+02 -2.56e+02 9.7e-01 1.1e+00 1.00e-01

phase.value = pdOPT     
   Iteration = 121
          mu = 1.1750646923315448e-79
relative gap = 2.1266673081851565e-81
         gap = 7.0503881539892688e-79
      digits = 8.0672300444991649e+01
objValPrimal = -2.5598653846153846e+02
objValDual   = -2.5598653846153846e+02
p.feas.error = 3.8521179145106533e-81
d.feas.error = 3.7285311657829062e-156
relative eps = 7.4583407312002067e-155
total time   = 0.010


Parameters are
maxIteration =    1000
epsilonStar  = 1.000e-80
lambdaStar   = 1.000e+05
omegaStar    = 2.000e+00
lowerBound   = -1.000e+05
upperBound   = 1.000e+05
betaStar     = 1.000e-01
betaBar      = 2.000e-01
gammaStar    = 9.000e-01
epsilonDash  = 1.000e-80
precision    =    512

                         Time(sec)  Ratio(% : MainLoop) 
 Predictor time  =       0.000000,  0.000000
 Corrector time  =       0.000000,  0.000000
 Make bMat time  =       0.000000,  0.000000
 Make bDia time  =       0.000000,  0.000000
 Make bF1  time  =       0.000000,  0.000000
 Make bF2  time  =       0.000000,  0.000000
 Make bF3  time  =       0.000000,  0.000000
 Make bPRE time  =       0.000000,  0.000000
 Make rMat time  =       0.000000,  0.000000
 Make gVec Mul   =       0.000000,  0.000000
 Make gVec time  =       0.000000,  0.000000
 Cholesky bMat   =       0.000000,  0.000000
 Ste Pre time    =       0.000000,  0.000000
 Ste Cor time    =       0.010000,  100.000000
 solve           =       0.000000,  0.000000
 sumDz           =       0.000000,  0.000000
 makedX          =       0.000000,  0.000000
 symmetriseDx    =       0.000000,  0.000000
 makedXdZ        =       0.000000,  0.000000
 xMatTime        =       0.000000,  0.000000
 zMatTime        =       0.000000,  0.000000
 invzMatTime     =       0.000000,  0.000000
 xMatzMatTime    =       0.000000,  0.000000
 EigxMatTime     =       0.010000,  100.000000
 EigzMatTime     =       0.000000,  0.000000
 EigxMatzMatTime =       0.000000,  0.000000
 updateRes       =       0.000000,  0.000000
 EigTime         =       0.010000,  100.000000
 sub_total_bMat  =       0.010000,  100.000000
 Main Loop       =       0.010000,  100.000000
 File Check      =       0.000000,  0.000000
 File Change     =       0.000000,  0.000000
 File Read       =       0.000000,  0.000000
 Total           =       0.010000,  100.000000

xVec = 
{+1.00000000000000000000000000000000000000000000000000000000000000000000000000000000002018818523229982638545825696135401392631132377144993055273690969453669319e+00,+1.29994771634615384615384615384615384615384615384615384615384615384615384615384614989672776472552931352872585194282102791387915877122264171371455839623636695e+02,+1.19992187499999999999999999999999999999999999999999999999999999999999999999999999909930425547945262154011181513402813219207167389948013386520829454487273608e+02,+4.9995793269230769230769230769230769230769230769230769230769230769230769230769230973145267975624030291086508652244463994001012422136946971172223525817447456e+00}
xMat = 
{
{+3.84615384615384615384615384615384615384615384615384615384615384615384615384579165065732166749036252017271678955060126943230052830090845159837876813637906633e-03}
{+1.1209955486222289856019910215908803485491900373424914437494748783437367668576655675502455279781363424837982816904943670297893412397914535810986212284464734e-78}
{+1.26111999220000760880223989928974039211788648890418400024383076945887680970621600868589877527955988406298166583911237883146780013696188471288006922701560639e-78}
{+3.83185268769047909324273493706563172664743201351514866298742962361862272326004769419308477831927486613045377197281074492521065052676372168335939898242263634e-81}
{+3.87230609974295308033538723221003251114243255970378071338666718397577205379842264856659935495117899261300984030762616938699275232788815834531203732882803813e-81}
{+2.30604798573715677038123867298695385987315779351601173423759374105263767302516757017005721208306389016489763939945431042532775734892090300195231655997180573e-77}
}
yMat = 
{
{+2.07473911180815202163092413342562036161326788340973699198776243142898298694856740835625898472319988184918325955300032162989961741966025219726459326499701167e-77}
{+1.38461538461538461538461538461538461538461538461538461538461538461538461538466645511659835451130168428636124603967048044020700891057200645985055958121719561e-01}
{+1.23076923076923076923076923076923076923076923076923076923076923076923076923079157411351178009869448687528304514235583519259056639837525282618461981678252311e-01}
{+2.12183007970361624956913667725837175096289229260138808992258259037983022700950324711099262534807754529599300760817853021536661328920046681863980632474318678e+01}
{+2.02183007970361624956913667725837175096289229260138808992258259037983022700950324711099262534807754529599300760817853021536661328920046681863980632474318678e+01}
{+6.73076923076923076923076923076923076923076923076923076923076923076923076923072933194015753553804555915128027653150743715608827428861561995324175032717406643e-03}
}
    main loop time = 0.010000
        total time = 0.010000
  file   read time = 0.000000
